(declare-fun temp186_1 () (_ BitVec 64))
(declare-fun var66699 () (_ BitVec 64))
(declare-fun temp186_3 () (_ BitVec 64))
(declare-fun temp186_2 () (_ BitVec 64))
(declare-fun temp186_4 () (_ BitVec 64))
(declare-fun var398282 () (_ BitVec 64))
(declare-fun temp186_6 () (_ BitVec 64))
(declare-fun temp186_5 () (_ BitVec 64))
(declare-fun temp186_8 () (_ BitVec 64))
(declare-fun temp186_7 () (_ BitVec 64))
(declare-fun temp186_9 () (_ BitVec 64))
(declare-fun var1446858 () (_ BitVec 64))
(declare-fun var74155 () (_ BitVec 64))
(declare-fun var74156 () (_ BitVec 64))
(declare-fun temp186_11 () (_ BitVec 64))
(declare-fun temp186_10 () (_ BitVec 64))
(declare-fun temp186_13 () (_ BitVec 64))
(declare-fun temp186_12 () (_ BitVec 64))
(declare-fun temp186_15 () (_ BitVec 64))
(declare-fun temp186_14 () (_ BitVec 64))
(declare-fun temp186_16 () (_ BitVec 64))
(declare-fun var1842394 () (_ BitVec 64))
(declare-fun temp186_17 () (_ BitVec 64))
(declare-fun var74287 () (_ BitVec 64))
(declare-fun var74108 () (_ BitVec 64))
(declare-fun var74107 () (_ BitVec 64))
(declare-fun temp186_19 () (_ BitVec 64))
(declare-fun temp186_18 () (_ BitVec 64))
(declare-fun temp186_20 () (_ BitVec 64))
(declare-fun var74393 () (_ BitVec 64))
(declare-fun var3548025 () (_ BitVec 64))
(declare-fun temp186_21 () (_ BitVec 64))
(declare-fun var3548029 () (_ BitVec 64))
(declare-fun temp186_22 () (_ BitVec 64))
(declare-fun var3548057 () (_ BitVec 64))
(declare-fun temp186_23 () (_ BitVec 64))
(declare-fun var74406 () (_ BitVec 64))
(declare-fun temp186_24 () (_ BitVec 64))
(declare-fun var4006777 () (_ BitVec 64))
(declare-fun temp186_25 () (_ BitVec 64))
(declare-fun var4006781 () (_ BitVec 64))
(declare-fun temp186_26 () (_ BitVec 64))
(declare-fun var4006809 () (_ BitVec 64))
(declare-fun temp186_27 () (_ BitVec 64))
(declare-fun var74420 () (_ BitVec 64))
(declare-fun var74423 () (_ BitVec 64))
(assert (= temp186_1 #x0000000000000000))
(assert (= var66699 temp186_1))
(assert (= temp186_3 #x0000000000000000))
(assert (= temp186_2 temp186_3))
(assert (= temp186_4 #x0000000000000000))
(assert (= var398282 temp186_4))
(assert (= temp186_6 #x0000000000000000))
(assert (= temp186_5 temp186_6))
(assert (= temp186_8 #x0000000000000000))
(assert (= temp186_7 temp186_8))
(assert (= temp186_9 #x0000000000000000))
(assert (= var1446858 temp186_9))
(assert (= var74155 var66699))
(assert (= var74156 var66699))
(assert (= temp186_11 #x0000000000000001))
(assert (= temp186_10 temp186_11))
(assert (= temp186_13 #x0000000000000001))
(assert (= temp186_12 temp186_13))
(assert (= temp186_15 #x0000000000000002))
(assert (= temp186_14 temp186_15))
(assert (= temp186_16 #x0000000000000000))
(assert (= var1842394 temp186_16))
(assert (= temp186_17 #x0000000000000001))
(assert (= var74287 temp186_17))
(assert (= var74108 (bvadd var74287 var74155)))
(assert (= var74107 var74108))
(assert (= temp186_19 #x0000000000000002))
(assert (= temp186_18 temp186_19))
(assert (= temp186_20 #x0000000000000000))
(assert (= var66699 temp186_20))
(assert (= var74393 var66699))
(assert (= var3548025 var66699))
(assert (= temp186_21 #x0000000000000001))
(assert (= var3548029 temp186_21))
(assert (= temp186_22 #x0000000000000000))
(assert (= var3548057 temp186_22))
(assert (= temp186_23 #x0000000000000000))
(assert (= var3548057 temp186_23))
(assert (= var74406 var66699))
(assert (= temp186_24 #x0000000000000001))
(assert (= var4006777 temp186_24))
(assert (= temp186_25 #x0000000000000001))
(assert (= var4006781 temp186_25))
(assert (= temp186_26 #x0000000000000000))
(assert (= var4006809 temp186_26))
(assert (= temp186_27 #x0000000000000000))
(assert (= var4006809 temp186_27))
(assert (= var74420 var66699))
(assert (= var74423 var66699))
(model-add temp186_1 () (_ BitVec 64) #x0000000000000000)
(model-add var66699 () (_ BitVec 64) #x0000000000000000)
(model-add temp186_3 () (_ BitVec 64) #x0000000000000000)
(model-add temp186_2 () (_ BitVec 64) #x0000000000000000)
(model-add temp186_4 () (_ BitVec 64) #x0000000000000000)
(model-add var398282 () (_ BitVec 64) #x0000000000000000)
(model-add temp186_6 () (_ BitVec 64) #x0000000000000000)
(model-add temp186_5 () (_ BitVec 64) #x0000000000000000)
(model-add temp186_8 () (_ BitVec 64) #x0000000000000000)
(model-add temp186_7 () (_ BitVec 64) #x0000000000000000)
(model-add temp186_9 () (_ BitVec 64) #x0000000000000000)
(model-add var1446858 () (_ BitVec 64) #x0000000000000000)
(model-add var74155 () (_ BitVec 64) #x0000000000000000)
(model-add var74156 () (_ BitVec 64) #x0000000000000000)
(model-add temp186_11 () (_ BitVec 64) #x0000000000000001)
(model-add temp186_10 () (_ BitVec 64) #x0000000000000001)
(model-add temp186_13 () (_ BitVec 64) #x0000000000000001)
(model-add temp186_12 () (_ BitVec 64) #x0000000000000001)
(model-add temp186_15 () (_ BitVec 64) #x0000000000000002)
(model-add temp186_14 () (_ BitVec 64) #x0000000000000002)
(model-add temp186_16 () (_ BitVec 64) #x0000000000000000)
(model-add var1842394 () (_ BitVec 64) #x0000000000000000)
(model-add temp186_17 () (_ BitVec 64) #x0000000000000001)
(model-add var74287 () (_ BitVec 64) #x0000000000000001)
(model-add var74108 () (_ BitVec 64) #x0000000000000001)
(model-add var74107 () (_ BitVec 64) #x0000000000000001)
(model-add temp186_19 () (_ BitVec 64) #x0000000000000002)
(model-add temp186_18 () (_ BitVec 64) #x0000000000000002)
(model-add temp186_20 () (_ BitVec 64) #x0000000000000000)
(model-add var74393 () (_ BitVec 64) #x0000000000000000)
(model-add var3548025 () (_ BitVec 64) #x0000000000000000)
(model-add temp186_21 () (_ BitVec 64) #x0000000000000001)
(model-add var3548029 () (_ BitVec 64) #x0000000000000001)
(model-add temp186_22 () (_ BitVec 64) #x0000000000000000)
(model-add var3548057 () (_ BitVec 64) #x0000000000000000)
(model-add temp186_23 () (_ BitVec 64) #x0000000000000000)






